p cnf 462
-6 -146
-7 -149
-8 -152
-9 -155
-10 -158
-11 159
-12 160
-13 161
-14 162
-15 163
-16 164
-17 -7
-17 -8
7 8 17
-18 -9
-18 -10
9 10 18
-19 -11
-19 -12
11 12 19
-20 -13
-20 -14
13 14 20
-21 -15
-21 -16
15 16 21
-22 17
-22 18
-17 -18 22
-23 19
-23 20
-19 -20 23
-24 22
-24 23
-22 -23 24
-25 21
-25 24
-21 -24 25
-26 -6
-26 7
6 -7 26
-27 6
-27 -7
-6 7 27
-28 -26
-28 -27
26 27 28
-29 6
-29 7
-6 -7 29
-30 -6
-30 -28
6 28 30
-31 6
-31 28
-6 -28 31
-32 -30
-32 -31
30 31 32
-33 6
-33 -28
-6 28 33
-34 -29
-34 -33
29 33 34
-35 -7
-35 8
7 -8 35
-36 7
-36 -8
-7 8 36
-37 -35
-37 -36
35 36 37
-38 7
-38 8
-7 -8 38
-39 34
-39 -37
-34 37 39
-40 -34
-40 37
34 -37 40
-41 -39
-41 -40
39 40 41
-42 -34
-42 -37
34 37 42
-43 -38
-43 -42
38 42 43
-44 -8
-44 9
8 -9 44
-45 8
-45 -9
-8 9 45
-46 -44
-46 -45
44 45 46
-47 8
-47 9
-8 -9 47
-48 43
-48 -46
-43 46 48
-49 -43
-49 46
43 -46 49
-50 -48
-50 -49
48 49 50
-51 -43
-51 -46
43 46 51
-52 -47
-52 -51
47 51 52
-53 -9
-53 10
9 -10 53
-54 9
-54 -10
-9 10 54
-55 -53
-55 -54
53 54 55
-56 9
-56 10
-9 -10 56
-57 52
-57 -55
-52 55 57
-58 -52
-58 55
52 -55 58
-59 -57
-59 -58
57 58 59
-60 -52
-60 -55
52 55 60
-61 -56
-61 -60
56 60 61
-62 -10
-62 11
10 -11 62
-63 10
-63 -11
-10 11 63
-64 -62
-64 -63
62 63 64
-65 10
-65 11
-10 -11 65
-66 61
-66 -64
-61 64 66
-67 -61
-67 64
61 -64 67
-68 -66
-68 -67
66 67 68
-69 -61
-69 -64
61 64 69
-70 -65
-70 -69
65 69 70
-71 -11
-71 12
11 -12 71
-72 11
-72 -12
-11 12 72
-73 -71
-73 -72
71 72 73
-74 11
-74 12
-11 -12 74
-75 70
-75 -73
-70 73 75
-76 -70
-76 73
70 -73 76
-77 -75
-77 -76
75 76 77
-78 -70
-78 -73
70 73 78
-79 -74
-79 -78
74 78 79
-80 -12
-80 13
12 -13 80
-81 12
-81 -13
-12 13 81
-82 -80
-82 -81
80 81 82
-83 12
-83 13
-12 -13 83
-84 79
-84 -82
-79 82 84
-85 -79
-85 82
79 -82 85
-86 -84
-86 -85
84 85 86
-87 -79
-87 -82
79 82 87
-88 -83
-88 -87
83 87 88
-89 -13
-89 14
13 -14 89
-90 13
-90 -14
-13 14 90
-91 -89
-91 -90
89 90 91
-92 13
-92 14
-13 -14 92
-93 88
-93 -91
-88 91 93
-94 -88
-94 91
88 -91 94
-95 -93
-95 -94
93 94 95
-96 -88
-96 -91
88 91 96
-97 -92
-97 -96
92 96 97
-98 -14
-98 15
14 -15 98
-99 14
-99 -15
-14 15 99
-100 -98
-100 -99
98 99 100
-101 14
-101 15
-14 -15 101
-102 97
-102 -100
-97 100 102
-103 -97
-103 100
97 -100 103
-104 -102
-104 -103
102 103 104
-105 -97
-105 -100
97 100 105
-106 -101
-106 -105
101 105 106
-107 -15
-107 16
15 -16 107
-108 15
-108 -16
-15 16 108
-109 -107
-109 -108
107 108 109
-110 15
-110 16
-15 -16 110
-111 106
-111 -109
-106 109 111
-112 -106
-112 109
106 -109 112
-113 -111
-113 -112
111 112 113
-114 -106
-114 -109
106 109 114
-115 -110
-115 -114
110 114 115
-116 6
-116 -32
-6 32 116
-117 -6
-117 8
6 -8 117
-118 -116
-118 -117
116 117 118
-119 6
-119 -41
-6 41 119
-120 -6
-120 9
6 -9 120
-121 -119
-121 -120
119 120 121
-122 6
-122 -50
-6 50 122
-123 -6
-123 10
6 -10 123
-124 -122
-124 -123
122 123 124
-125 6
-125 -59
-6 59 125
-126 -6
-126 11
6 -11 126
-127 -125
-127 -126
125 126 127
-128 6
-128 -68
-6 68 128
-129 -6
-129 12
6 -12 129
-130 -128
-130 -129
128 129 130
-131 6
-131 -77
-6 77 131
-132 -6
-132 13
6 -13 132
-133 -131
-133 -132
131 132 133
-134 6
-134 -86
-6 86 134
-135 -6
-135 14
6 -14 135
-136 -134
-136 -135
134 135 136
-137 6
-137 -95
-6 95 137
-138 -6
-138 15
6 -15 138
-139 -137
-139 -138
137 138 139
-140 6
-140 -104
-6 104 140
-141 -6
-141 16
6 -16 141
-142 -140
-142 -141
140 141 142
-143 6
-143 -113
-6 113 143
-144 1
-144 25
-1 -25 144
-145 -25
-145 26
25 -26 145
-146 -144
-146 -145
144 145 146
-147 2
-147 25
-2 -25 147
-148 -25
-148 -118
25 118 148
-149 -147
-149 -148
147 148 149
-150 3
-150 25
-3 -25 150
-151 -25
-151 -121
25 121 151
-152 -150
-152 -151
150 151 152
-153 4
-153 25
-4 -25 153
-154 -25
-154 -124
25 124 154
-155 -153
-155 -154
153 154 155
-156 5
-156 25
-5 -25 156
-157 -25
-157 -127
25 127 157
-158 -156
-158 -157
156 157 158
-159 -25
-159 -130
25 130 159
-160 -25
-160 -133
25 133 160
-161 -25
-161 -136
25 136 161
-162 -25
-162 -139
25 139 162
-163 -25
-163 -142
25 142 163
-164 -25
-164 143
25 -143 164
-165 -16
-165 115
16 -115 165
-166 6
-166 -165
-6 165 166
166
